Version identifier: 22.1.0.0 | 2022-03-09 | 1a383f8ce
CPXPARAM_Threads                                 1
CPXPARAM_MIP_Strategy_VariableSelect             3
CPXPARAM_TimeLimit                               600
Tried aggregator 1 time.
Reduced MIP has 4520 rows, 18000 columns, and 108809 nonzeros.
Reduced MIP has 14500 binaries, 3500 generals, 0 SOSs, and 0 indicators.
Presolve time = 0.06 sec. (44.19 ticks)
Found incumbent of value 205.997222 after 0.17 sec. (114.04 ticks)
Probing time = 0.01 sec. (6.05 ticks)
Tried aggregator 1 time.
Detecting symmetries...
Reduced MIP has 4520 rows, 18000 columns, and 108809 nonzeros.
Reduced MIP has 14500 binaries, 3500 generals, 0 SOSs, and 0 indicators.
Presolve time = 0.08 sec. (54.44 ticks)
Probing time = 0.01 sec. (6.05 ticks)
Clique table members: 510.
MIP emphasis: balance optimality and feasibility.
MIP search method: dynamic search.
Parallel mode: none, using 1 thread.
Root relaxation solution time = 4.56 sec. (3824.69 ticks)

        Nodes                                         Cuts/
   Node  Left     Objective  IInf  Best Integer    Best Bound    ItCnt     Gap

*     0+    0                          205.9972        0.0000           100.00%
      0     0        0.0000  3678      205.9972        0.0000    10786  100.00%
*     0+    0                           36.5253        0.0000           100.00%
      0     0        0.0000  1320       36.5253   ZeroHalf: 6    12088  100.00%
      0     0        0.0000  2062       36.5253     Cuts: 230    22205  100.00%
      0     0        0.0000  1192       36.5253  ZeroHalf: 10    23809  100.00%
*     0+    0                           22.1573        0.0000           100.00%
*     0+    0                           22.0302        0.0000           100.00%
*     0+    0                           21.8813        0.0000           100.00%
      0     0  -1.00000e+75     0       21.8813        0.0000    23809  100.00%
      0     0        0.0000  1374       21.8813 ZeroHalf: 149    28355  100.00%
*     0+    0                            1.7560        0.0000           100.00%
*     0+    0                            1.2880        0.0000           100.00%
Detecting symmetries...
      0     2        0.0000   316        1.2880        0.0000    28355  100.00%
Elapsed time = 79.58 sec. (68149.19 ticks, tree = 0.01 MB, solutions = 7)
      1     3        0.0000  1596        1.2880        0.0000    65851  100.00%
      2     4        0.0000   428        1.2880        0.0000    73103  100.00%
      3     5        0.0000   448        1.2880        0.0000    82982  100.00%
      4     6        0.0000   437        1.2880        0.0000    83334  100.00%
      5     7        0.0000   443        1.2880        0.0000    86869  100.00%
      6     8        0.0000   422        1.2880        0.0000    90594  100.00%
      7     9        0.0000   497        1.2880        0.0000    96433  100.00%
      8    10        0.0000   467        1.2880        0.0000    98071  100.00%
      9    11        0.0000   453        1.2880        0.0000   100692  100.00%
     10    12        0.0000   612        1.2880        0.0000   105158  100.00%
Elapsed time = 136.16 sec. (117785.48 ticks, tree = 0.23 MB, solutions = 7)
     11    13        0.0000   447        1.2880        0.0000   105823  100.00%
     12    14        0.0000   509        1.2880        0.0000   106733  100.00%
     14    16        0.0000   533        1.2880        0.0000   107776  100.00%
     15    17        0.0000   670        1.2880        0.0000   111316  100.00%
     16    18        0.0000   736        1.2880        0.0000   132320  100.00%
     18    20        0.0000   533        1.2880        0.0000   142011  100.00%
     19    21        0.0000   606        1.2880        0.0000   150552  100.00%
     21    23        0.0000  1598        1.2880        0.0000   158880  100.00%
     22    24        0.0000   528        1.2880        0.0000   158890  100.00%
     23    25        0.0000   542        1.2880        0.0000   164622  100.00%
Elapsed time = 166.16 sec. (143053.33 ticks, tree = 0.75 MB, solutions = 7)
     25    27        0.0000   563        1.2880        0.0000   174220  100.00%
     27    29        0.0000   552        1.2880        0.0000   183726  100.00%
     28    30        0.0000   560        1.2880        0.0000   191249  100.00%
     29    31        0.0000   556        1.2880        0.0000   192171  100.00%
     30    32        0.0000   603        1.2880        0.0000   199163  100.00%
     31    33        0.0000   508        1.2880        0.0000   202833  100.00%
     32    34        0.0000   520        1.2880        0.0000   217648  100.00%
     34    36        0.0000   537        1.2880        0.0000   221936  100.00%
     36    38        0.0000   488        1.2880        0.0000   233874  100.00%
     39    41        0.0000   398        1.2880        0.0000   240886  100.00%
Elapsed time = 191.20 sec. (162769.94 ticks, tree = 1.40 MB, solutions = 7)
     41    43        0.0000   171        1.2880        0.0000   247726  100.00%
     43    45        0.0000   122        1.2880        0.0000   253336  100.00%
     44    46        0.0000   103        1.2880        0.0000   258732  100.00%
*    46     1      integral     0        0.0000        0.0000   265272    0.00%
     46     0        0.0000     0        0.0000        0.0000   265272    0.00%

Zero-half cuts applied:  52
Gomory fractional cuts applied:  2

Root node processing (before b&c):
  Real time             =   79.53 sec. (68116.20 ticks)
Sequential b&c:
  Real time             =  116.82 sec. (99536.36 ticks)
                          ------------
Total (root+branch&cut) =  196.35 sec. (167652.56 ticks)
Violation-free sequence bound:	500
Unscheduled:	0
Status:	Optimal
Time:	196.33
Sequence:
	19
	6
	18
	19
	6
	18
	19
	12
	2
	19
	12
	1
	14
	10
	4
	8
	10
	18
	3
	9
	1
	14
	9
	2
	3
	9
	18
	3
	9
	2
	3
	13
	15
	3
	13
	11
	3
	13
	11
	14
	0
	11
	14
	0
	11
	3
	13
	15
	14
	0
	11
	3
	13
	11
	14
	0
	11
	14
	5
	9
	14
	2
	9
	14
	2
	9
	14
	2
	9
	14
	2
	9
	14
	2
	9
	14
	18
	10
	17
	4
	10
	8
	4
	10
	17
	4
	10
	8
	1
	10
	8
	1
	10
	8
	1
	10
	8
	4
	10
	8
	4
	10
	8
	2
	0
	14
	15
	0
	14
	15
	5
	16
	5
	15
	16
	1
	18
	19
	12
	2
	19
	2
	12
	19
	2
	12
	19
	2
	2
	19
	12
	5
	19
	6
	18
	19
	6
	5
	16
	15
	5
	16
	15
	5
	16
	6
	7
	16
	1
	7
	16
	1
	11
	3
	0
	15
	3
	0
	11
	14
	0
	11
	3
	0
	7
	8
	13
	7
	8
	13
	7
	3
	0
	15
	14
	1
	9
	4
	3
	9
	18
	14
	9
	2
	14
	0
	11
	14
	0
	11
	3
	13
	11
	14
	0
	11
	3
	13
	11
	3
	13
	11
	3
	13
	11
	3
	13
	11
	14
	0
	7
	8
	13
	1
	14
	9
	5
	14
	11
	13
	3
	2
	9
	14
	4
	9
	3
	2
	9
	3
	18
	0
	8
	7
	0
	17
	7
	0
	8
	7
	0
	8
	7
	0
	17
	7
	13
	8
	7
	13
	8
	7
	13
	8
	7
	13
	8
	7
	13
	8
	7
	13
	8
	7
	13
	17
	7
	0
	17
	7
	13
	17
	7
	0
	17
	7
	0
	17
	4
	10
	4
	8
	10
	18
	17
	10
	4
	8
	10
	1
	8
	10
	18
	17
	10
	5
	8
	10
	18
	17
	10
	5
	8
	10
	18
	17
	10
	18
	17
	10
	5
	12
	19
	5
	12
	19
	4
	5
	19
	6
	2
	19
	12
	2
	16
	5
	15
	16
	1
	7
	16
	5
	15
	16
	5
	12
	19
	18
	6
	19
	2
	12
	19
	4
	6
	19
	2
	6
	19
	4
	6
	19
	4
	6
	19
	4
	6
	19
	4
	6
	19
	1
	6
	19
	2
	12
	19
	18
	6
	19
	2
	12
	19
	2
	18
	9
	14
	18
	9
	14
	18
	9
	3
	18
	9
	14
	18
	10
	17
	18
	10
	17
	18
	10
	17
	18
	10
	17
	18
	10
	17
	18
	10
	17
	18
	10
	3
	18
	9
	14
	18
	9
	3
	4
	9
	3
	5
	9
	3
	18
	10
	8
	4
	13
	8
	7
	13
	3
	11
	1
	16
	15
	5
	13
	11
	1
	16
	15
	5
	16
	15
	5
	16
	15
	5
	16
	1
	7
	16
	6
	1
	19
	12
	2
	19
	6
	4
	19
	6
	18
	19
	6
	18
	19
	6
	4
	19
	6
	1
	19
	6
	1
	16
	15
	5
	16
	15
	5
	16
	15
	5
	16
	15
	5
	16
	15
	5
	16
	15
	5
	16
	2
	12
	19
	4
	6
	19
	4
	6
	19
Violation-free sequence:
	19
	6
	18
	19
	6
	18
	19
	12
	2
	19
	12
	1
	14
	10
	4
	8
	10
	18
	3
	9
	1
	14
	9
	2
	3
	9
	18
	3
	9
	2
	3
	13
	15
	3
	13
	11
	3
	13
	11
	14
	0
	11
	14
	0
	11
	3
	13
	15
	14
	0
	11
	3
	13
	11
	14
	0
	11
	14
	5
	9
	14
	2
	9
	14
	2
	9
	14
	2
	9
	14
	2
	9
	14
	2
	9
	14
	18
	10
	17
	4
	10
	8
	4
	10
	17
	4
	10
	8
	1
	10
	8
	1
	10
	8
	1
	10
	8
	4
	10
	8
	4
	10
	8
	2
	0
	14
	15
	0
	14
	15
	5
	16
	5
	15
	16
	1
	18
	19
	12
	2
	19
	2
	12
	19
	2
	12
	19
	2
	2
	19
	12
	5
	19
	6
	18
	19
	6
	5
	16
	15
	5
	16
	15
	5
	16
	6
	7
	16
	1
	7
	16
	1
	11
	3
	0
	15
	3
	0
	11
	14
	0
	11
	3
	0
	7
	8
	13
	7
	8
	13
	7
	3
	0
	15
	14
	1
	9
	4
	3
	9
	18
	14
	9
	2
	14
	0
	11
	14
	0
	11
	3
	13
	11
	14
	0
	11
	3
	13
	11
	3
	13
	11
	3
	13
	11
	3
	13
	11
	14
	0
	7
	8
	13
	1
	14
	9
	5
	14
	11
	13
	3
	2
	9
	14
	4
	9
	3
	2
	9
	3
	18
	0
	8
	7
	0
	17
	7
	0
	8
	7
	0
	8
	7
	0
	17
	7
	13
	8
	7
	13
	8
	7
	13
	8
	7
	13
	8
	7
	13
	8
	7
	13
	8
	7
	13
	17
	7
	0
	17
	7
	13
	17
	7
	0
	17
	7
	0
	17
	4
	10
	4
	8
	10
	18
	17
	10
	4
	8
	10
	1
	8
	10
	18
	17
	10
	5
	8
	10
	18
	17
	10
	5
	8
	10
	18
	17
	10
	18
	17
	10
	5
	12
	19
	5
	12
	19
	4
	5
	19
	6
	2
	19
	12
	2
	16
	5
	15
	16
	1
	7
	16
	5
	15
	16
	5
	12
	19
	18
	6
	19
	2
	12
	19
	4
	6
	19
	2
	6
	19
	4
	6
	19
	4
	6
	19
	4
	6
	19
	4
	6
	19
	1
	6
	19
	2
	12
	19
	18
	6
	19
	2
	12
	19
	2
	18
	9
	14
	18
	9
	14
	18
	9
	3
	18
	9
	14
	18
	10
	17
	18
	10
	17
	18
	10
	17
	18
	10
	17
	18
	10
	17
	18
	10
	17
	18
	10
	3
	18
	9
	14
	18
	9
	3
	4
	9
	3
	5
	9
	3
	18
	10
	8
	4
	13
	8
	7
	13
	3
	11
	1
	16
	15
	5
	13
	11
	1
	16
	15
	5
	16
	15
	5
	16
	15
	5
	16
	1
	7
	16
	6
	1
	19
	12
	2
	19
	6
	4
	19
	6
	18
	19
	6
	18
	19
	6
	4
	19
	6
	1
	19
	6
	1
	16
	15
	5
	16
	15
	5
	16
	15
	5
	16
	15
	5
	16
	15
	5
	16
	15
	5
	16
	2
	12
	19
	4
	6
	19
	4
	6
	19
